unknown
(model
; cardinality of BoundSet is 1
(declare-sort BoundSet 0)
; rep: @uc_BoundSet_0
; cardinality of UnboundSet is 1
(declare-sort UnboundSet 0)
(declare-fun groundTerm_2 () UnboundSet)
(define-fun IsExtinct ((BOUND_VARIABLE_410 BoundSet)) Bool true)
(define-fun IsGoingExtinct ((BOUND_VARIABLE_410 BoundSet)) Bool false)
(define-fun IsStarvingToDeath ((BOUND_VARIABLE_410 BoundSet)) Bool false)
(define-fun death ((BOUND_VARIABLE_410 BoundSet)) Bool false)
)
sat
(model
; cardinality of BoundSet is 1
(declare-sort BoundSet 0)
; rep: @uc_BoundSet_0
; cardinality of UnboundSet is 1
(declare-sort UnboundSet 0)
(declare-fun groundTerm_6 () UnboundSet)
(define-fun IsExtinct ((BOUND_VARIABLE_451 BoundSet)) Bool true)
(define-fun IsGoingExtinct ((BOUND_VARIABLE_451 BoundSet)) Bool false)
(define-fun IsStarvingToDeath ((BOUND_VARIABLE_451 BoundSet)) Bool false)
(define-fun death ((BOUND_VARIABLE_451 BoundSet)) Bool false)
)
